;; ===================== PROJECTED CANON (QE) =====================
;; Each clause below is entailed by Proj = ∃W.F over the canonical vocabulary.
;; Units appear first for clarity; OR-clauses (SAT-filtered) follow.
;; ==================================================================

;; Unit Bool constraints (entailed)
(assert (not patient_has_finding_of_acute_viral_pharyngitis_inthepast4weeks))
(assert (not patient_has_diagnosis_of_tumor_finding_inthehistory))
(assert (not patient_has_diagnosis_of_tumor_finding_now))
(assert (not patient_is_pregnant_now))
(assert (not patient_is_breastfeeding_now))
(assert (not patient_has_finding_of_alcohol_abuse_now))
(assert (not patient_is_undergoing_clinical_trial_now))
